n = 40;
m = 6;
p = [7, 5, 8, 6, 9, 5];
v = [0.05, 0.18, 0.32, 0.45, 0.62, 0.88];
ce = [9.3, 6.2, 8.1, 7.4, 5.6, 10.3];
c = [|0, 2.3, 3.4, 1.5, 3.9, 2.6|3.1, 0, 2.4, 1.9, 4.2, 1.3|2.7, 3.2, 0, 4.1, 3.6, 1.4|1.5, 4.3, 2.1, 0, 3.9, 2.8|2.6, 3.9, 1.7, 2.8, 0, 3.4|1.9, 3.5, 2.6, 1.3, 4.1, 0|];
ct = 17.8;
maxM = 8;
